%%%%%%%%%%%%%%%%%%%%%%%%%%%%%%%%%%%%%%%%%%%%%%%%%%%%%%%%%%%%%%%%%%%%%%%%%
%FILE DATA:	Soccer Computational Problem for MiniZinc Models
%AUTHORS:	Robinson Duque, Alejandro Arbelaez, Juan Francisco Díaz
%CONTACT:  	robinson.duque@correounivalle.edu.co 
%LAST UPDATE:	May, 2018 
%ROUND ROBIN:2
%TEAMS:20
%PRESENT FIXTURE:25
%FIXTURES TO PLAY:13
%GAMES TO PLAY:130
%%%%%%%%%%%%%%%%%%%%%%%%%%%%%%%%%%%%%%%%%%%%%%%%%%%%%%%%%%%%%%%%%%%%%%%%%
%Number of teams:
n=20;

%For the purpose of our models, we offer two representations of the games to play, namely fixtures and games to play:

%Fixtures to play:
%fixtures=[|0,0,0,1,1,0,1,1,1,1,1,1,1,0,1,0,1,0,1,1
%|0,0,1,1,1,1,0,1,1,1,1,0,0,1,0,1,1,1,1,0
%|0,1,0,1,1,1,1,1,0,1,0,1,1,1,1,1,1,0,0,0
%|1,1,1,0,1,1,1,1,1,0,0,1,1,1,1,0,0,1,0,0
%|1,1,1,1,0,1,1,1,1,0,0,0,0,0,0,1,1,1,1,1
%|0,1,1,1,1,0,1,0,1,0,1,0,1,0,1,1,1,1,1,0
%|1,0,1,1,1,1,0,1,1,0,1,1,1,1,1,0,1,0,0,0
%|1,1,1,1,1,0,1,0,1,0,0,0,1,0,1,0,1,1,1,1
%|1,1,0,1,1,1,1,1,0,0,1,1,1,0,1,0,0,1,0,1
%|1,1,1,0,0,0,0,0,0,0,1,1,1,1,1,1,1,1,1,1
%|1,1,0,0,0,1,1,0,1,1,0,1,1,1,1,1,0,0,1,1
%|1,0,1,1,0,0,1,0,1,1,1,0,1,1,0,1,1,0,1,1
%|1,0,1,1,0,1,1,1,1,1,1,1,0,0,0,0,0,1,1,1
%|0,1,1,1,0,0,1,0,0,1,1,1,0,0,1,1,1,1,1,1
%|1,0,1,1,0,1,1,1,1,1,1,0,0,1,0,1,0,0,1,1
%|0,1,1,0,1,1,0,0,0,1,1,1,0,1,1,0,1,1,1,1
%|1,1,1,0,1,1,1,1,0,1,0,1,0,1,0,1,0,1,0,1
%|0,1,0,1,1,1,0,1,1,1,0,0,1,1,0,1,1,0,1,1
%|1,1,0,0,1,1,0,1,0,1,1,1,1,1,1,1,0,1,0,0
%|1,0,0,0,1,0,0,1,1,1,1,1,1,1,1,1,1,1,0,0|];

%Played Fixtures:
%PlayedFixtures=[|0,2,2,1,1,2,1,1,1,1,1,1,1,2,1,2,1,2,1,1
%|2,0,1,1,1,1,2,1,1,1,1,2,2,1,2,1,1,1,1,2
%|2,1,0,1,1,1,1,1,2,1,2,1,1,1,1,1,1,2,2,2
%|1,1,1,0,1,1,1,1,1,2,2,1,1,1,1,2,2,1,2,2
%|1,1,1,1,0,1,1,1,1,2,2,2,2,2,2,1,1,1,1,1
%|2,1,1,1,1,0,1,2,1,2,1,2,1,2,1,1,1,1,1,2
%|1,2,1,1,1,1,0,1,1,2,1,1,1,1,1,2,1,2,2,2
%|1,1,1,1,1,2,1,0,1,2,2,2,1,2,1,2,1,1,1,1
%|1,1,2,1,1,1,1,1,0,2,1,1,1,2,1,2,2,1,2,1
%|1,1,1,2,2,2,2,2,2,0,1,1,1,1,1,1,1,1,1,1
%|1,1,2,2,2,1,1,2,1,1,0,1,1,1,1,1,2,2,1,1
%|1,2,1,1,2,2,1,2,1,1,1,0,1,1,2,1,1,2,1,1
%|1,2,1,1,2,1,1,1,1,1,1,1,0,2,2,2,2,1,1,1
%|2,1,1,1,2,2,1,2,2,1,1,1,2,0,1,1,1,1,1,1
%|1,2,1,1,2,1,1,1,1,1,1,2,2,1,0,1,2,2,1,1
%|2,1,1,2,1,1,2,2,2,1,1,1,2,1,1,0,1,1,1,1
%|1,1,1,2,1,1,1,1,2,1,2,1,2,1,2,1,0,1,2,1
%|2,1,2,1,1,1,2,1,1,1,2,2,1,1,2,1,1,0,1,1
%|1,1,2,2,1,1,2,1,2,1,1,1,1,1,1,1,2,1,0,2
%|1,2,2,2,1,2,2,1,1,1,1,1,1,1,1,1,1,1,2,0|];

%Games to play:
games=[|3,2|4,1|4,2|4,3|5,1|5,2|5,3|5,4|6,2|6,3|6,4|6,5|7,1|7,3|7,4|7,5|7,6|8,1|8,2|8,3|8,4|8,5|8,7|9,1|9,2|9,4|9,5|9,6|9,7|9,8|10,1|10,2|10,3|11,1|11,2|11,6|11,7|11,9|11,10|12,1|12,3|12,4|12,7|12,9|12,10|12,11|13,1|13,3|13,4|13,6|13,7|13,8|13,9|13,10|13,11|13,12|14,2|14,3|14,4|14,7|14,10|14,11|14,12|15,1|15,3|15,4|15,6|15,7|15,8|15,9|15,10|15,11|15,14|16,2|16,3|16,5|16,6|16,10|16,11|16,12|16,14|16,15|17,1|17,2|17,3|17,5|17,6|17,7|17,8|17,10|17,12|17,14|17,16|18,2|18,4|18,5|18,6|18,8|18,9|18,10|18,13|18,14|18,16|18,17|19,1|19,2|19,5|19,6|19,8|19,10|19,11|19,12|19,13|19,14|19,15|19,16|19,18|20,1|20,5|20,8|20,9|20,10|20,11|20,12|20,13|20,14|20,15|20,16|20,17|20,18|];

%Played Games:
%PlayedGames=[|2,1|2,1|3,1|3,1|3,2|4,1|4,2|4,3|5,1|5,2|5,3|5,4|6,1|6,1|6,2|6,3|6,4|6,5|7,1|7,2|7,2|7,3|7,4|7,5|7,6|8,1|8,2|8,3|8,4|8,5|8,6|8,6|8,7|9,1|9,2|9,3|9,3|9,4|9,5|9,6|9,7|9,8|10,1|10,2|10,3|10,4|10,4|10,5|10,5|10,6|10,6|10,7|10,7|10,8|10,8|10,9|10,9|11,1|11,2|11,3|11,3|11,4|11,4|11,5|11,5|11,6|11,7|11,8|11,8|11,9|11,10|12,1|12,2|12,2|12,3|12,4|12,5|12,5|12,6|12,6|12,7|12,8|12,8|12,9|12,10|12,11|13,1|13,2|13,2|13,3|13,4|13,5|13,5|13,6|13,7|13,8|13,9|13,10|13,11|13,12|14,1|14,1|14,2|14,3|14,4|14,5|14,5|14,6|14,6|14,7|14,8|14,8|14,9|14,9|14,10|14,11|14,12|14,13|14,13|15,1|15,2|15,2|15,3|15,4|15,5|15,5|15,6|15,7|15,8|15,9|15,10|15,11|15,12|15,12|15,13|15,13|15,14|16,1|16,1|16,2|16,3|16,4|16,4|16,5|16,6|16,7|16,7|16,8|16,8|16,9|16,9|16,10|16,11|16,12|16,13|16,13|16,14|16,15|17,1|17,2|17,3|17,4|17,4|17,5|17,6|17,7|17,8|17,9|17,9|17,10|17,11|17,11|17,12|17,13|17,13|17,14|17,15|17,15|17,16|18,1|18,1|18,2|18,3|18,3|18,4|18,5|18,6|18,7|18,7|18,8|18,9|18,10|18,11|18,11|18,12|18,12|18,13|18,14|18,15|18,15|18,16|18,17|19,1|19,2|19,3|19,3|19,4|19,4|19,5|19,6|19,7|19,7|19,8|19,9|19,9|19,10|19,11|19,12|19,13|19,14|19,15|19,16|19,17|19,17|19,18|20,1|20,2|20,2|20,3|20,3|20,4|20,4|20,5|20,6|20,6|20,7|20,7|20,8|20,9|20,10|20,11|20,12|20,13|20,14|20,15|20,16|20,17|20,18|20,19|20,19|];

%Played Games - Win Results:
%% 0  0  0  0  0  0  0  1  0  1  0  0  0  0  0  0  0  0  0  0
%% 0  0  1  1  0  1  0  1  0  0  0  0  0  1  0  0  0  1  0  0
%% 0  0  0  1  0  0  0  0  0  0  0  1  0  1  1  1  1  0  0  0
%% 0  0  0  0  0  0  0  0  0  0  0  0  1  0  1  0  0  0  0  0
%% 0  0  0  0  0  0  0  0  0  0  0  0  0  0  0  0  0  0  0  0
%% 0  0  0  0  1  0  0  0  0  0  0  0  0  0  1  0  1  1  0  2
%% 1  2  0  1  1  0  0  0  1  0  0  0  1  1  1  0  1  0  0  0
%% 0  0  0  0  0  0  0  0  0  0  0  0  0  0  0  0  0  0  0  0
%% 1  0  0  1  1  0  0  1  0  0  1  0  0  0  1  0  0  1  0  1
%% 0  0  0  0  0  0  0  0  0  0  0  0  0  0  0  0  0  0  0  0
%% 1  0  0  0  0  0  0  0  0  0  0  1  1  0  0  0  0  0  0  0
%% 0  0  0  0  0  0  0  0  0  1  0  0  0  0  0  0  0  0  0  0
%% 0  0  0  0  0  0  0  1  0  0  0  1  0  0  0  0  0  0  0  0
%% 0  0  0  0  0  0  0  0  0  0  0  0  0  0  0  1  1  0  0  0
%% 1  0  0  0  0  0  0  0  0  1  1  0  0  1  0  0  0  0  0  0
%% 0  0  0  0  0  0  0  0  0  0  0  0  0  0  0  0  0  0  0  0
%% 0  0  0  0  1  0  0  0  0  0  0  0  0  0  0  1  0  0  0  0
%% 0  0  0  0  1  0  0  1  0  0  0  0  1  0  0  1  0  0  0  0
%% 0  1  1  1  0  1  1  0  2  1  1  1  0  1  1  1  0  0  0  0
%% 0  1  1  1  0  0  0  1  0  0  1  1  0  1  0  0  0  1  1  0
%Played Games - Tie Results:
%% 0  2  2  1  1  2  0  0  0  0  0  1  1  2  0  2  1  2  1  1
%% 2  0  0  0  1  0  0  0  1  1  1  2  2  0  2  1  1  0  0  1
%% 2  0  0  0  1  1  1  1  2  1  2  0  1  0  0  0  0  2  1  1
%% 1  0  0  0  1  1  0  1  0  2  2  1  0  1  0  2  2  1  1  1
%% 1  1  1  1  0  0  0  1  0  2  2  2  2  2  2  1  0  0  1  1
%% 2  0  1  1  0  0  1  2  1  2  1  2  1  2  0  1  0  0  0  0
%% 0  0  1  0  0  1  0  1  0  2  1  1  0  0  0  2  0  2  1  2
%% 0  0  1  1  1  2  1  0  0  2  2  2  0  2  1  2  1  0  1  0
%% 0  1  2  0  0  1  0  0  0  2  0  1  1  2  0  2  2  0  0  0
%% 0  1  1  2  2  2  2  2  2  0  1  0  1  1  0  1  1  1  0  1
%% 0  1  2  2  2  1  1  2  0  1  0  0  0  1  0  1  2  2  0  0
%% 1  2  0  1  2  2  1  2  1  0  0  0  0  1  2  1  1  2  0  0
%% 1  2  1  0  2  1  0  0  1  1  0  0  0  2  2  2  2  0  1  1
%% 2  0  0  1  2  2  0  2  2  1  1  1  2  0  0  0  0  1  0  0
%% 0  2  0  0  2  0  0  1  0  0  0  2  2  0  0  1  2  2  0  1
%% 2  1  0  2  1  1  2  2  2  1  1  1  2  0  1  0  0  0  0  1
%% 1  1  0  2  0  0  0  1  2  1  2  1  2  0  2  0  0  1  2  1
%% 2  0  2  1  0  0  2  0  0  1  2  2  0  1  2  0  1  0  1  0
%% 1  0  1  1  1  0  1  1  0  0  0  0  1  0  0  0  2  1  0  1
%% 1  1  1  1  1  0  2  0  0  1  0  0  1  0  1  1  1  0  1  0
%Played Games - Lose Results:
%% 0  0  0  0  0  0  1  0  1  0  1  0  0  0  1  0  0  0  0  0
%% 0  0  0  0  0  0  2  0  0  0  0  0  0  0  0  0  0  0  1  1
%% 0  1  0  0  0  0  0  0  0  0  0  0  0  0  0  0  0  0  1  1
%% 0  1  1  0  0  0  1  0  1  0  0  0  0  0  0  0  0  0  1  1
%% 0  0  0  0  0  1  1  0  1  0  0  0  0  0  0  0  1  1  0  0
%% 0  1  0  0  0  0  0  0  0  0  0  0  0  0  0  0  0  0  1  0
%% 0  0  0  0  0  0  0  0  0  0  0  0  0  0  0  0  0  0  1  0
%% 1  1  0  0  0  0  0  0  1  0  0  0  1  0  0  0  0  1  0  1
%% 0  0  0  0  0  0  1  0  0  0  0  0  0  0  0  0  0  0  2  0
%% 1  0  0  0  0  0  0  0  0  0  0  1  0  0  1  0  0  0  1  0
%% 0  0  0  0  0  0  0  0  1  0  0  0  0  0  1  0  0  0  1  1
%% 0  0  1  0  0  0  0  0  0  0  1  0  1  0  0  0  0  0  1  1
%% 0  0  0  1  0  0  1  0  0  0  1  0  0  0  0  0  0  1  0  0
%% 0  1  1  0  0  0  1  0  0  0  0  0  0  0  1  0  0  0  1  1
%% 0  0  1  1  0  1  1  0  1  0  0  0  0  0  0  0  0  0  1  0
%% 0  0  1  0  0  0  0  0  0  0  0  0  0  1  0  0  1  1  1  0
%% 0  0  1  0  0  1  1  0  0  0  0  0  0  1  0  0  0  0  0  0
%% 0  1  0  0  0  1  0  0  1  0  0  0  0  0  0  0  0  0  0  1
%% 0  0  0  0  0  0  0  0  0  0  0  0  0  0  0  0  0  0  0  1
%% 0  0  0  0  0  2  0  0  1  0  0  0  0  0  0  0  0  0  0  0

%%Initial points:
iPoints=[25, 33, 34, 23, 20, 35, 44, 19, 38, 21, 27, 22, 25, 23, 27, 20, 25, 29, 50, 40];

%%Initial positions:
%iPositions=[13, 7, 6, 15, 19, 5, 2, 20, 4, 17, 10, 16, 12, 14, 9, 18, 11, 8, 1, 3];

%%Position Constraints:
%numberPositionConstraints=2;

%%Total Fixtures:
%totalFixtures=38;

%%Fixtures to Play:
%fixturesToPlay=13;

%%Position Constraints Built With
%wantedPoints=[3, 0, 0, 1, 1, 3, 0, 1, 1, 1, 0, 3, 1, 0, 0, 1, 3, 1, 1, 0, 0, 0, 0, 3, 0, 3, 0, 1, 3, 1, 3, 0, 1, 3, 3, 0, 1, 0, 0, 1, 0, 1, 0, 3, 3, 3, 3, 0, 1, 0, 3, 1, 3, 3, 1, 0, 0, 0, 3, 1, 3, 3, 1, 3, 3, 0, 3, 1, 3, 0, 0, 3, 3, 3, 0, 3, 0, 0, 3, 3, 3, 3, 3, 0, 1, 1, 1, 1, 0, 0, 0, 0, 1, 1, 0, 1, 0, 0, 0, 0, 3, 0, 0, 3, 3, 3, 3, 1, 3, 3, 1, 0, 1, 0, 3, 3, 0, 3, 0, 1, 3, 3, 3, 1, 1, 0, 3, 1, 1, 0];

%POSITION CONSTRAINTS
%%[|teamID, operator, position|...]
%%operators index:
%%%1 for =  operator
%%%2 for >  operator
%%%3 for >= operator
%%%4 for <  operator
%%%5 for <= operator

positionConstraints=[|14,1,8|19,1,1|];

%SCORE VECTOR CONSTRAINTS
%%[|teamID, operator, wantedPoints|...]
%%operators index:
%%%1 for =  operator
%%%2 for >  operator
%%%3 for >= operator
%%%4 for <  operator
%%%5 for <= operator

%scoreVectorConstraints=[|14,1,46|19,1,74|];

%Instance Features:
%features=T,FP,TF,C,C/T,C/TF,FP/TF,FP/T,FP*C/T,FP*T/C,(C/T)*(FP/TF),Distance,Distance/C,Distance/T,Distance/(C*T)
%values=20,13,38,2,0.1,0.05263157894736842,0.3421052631578947,0.65,1.3,130.0,0.03421052631578948,6,3.0,0.3,0.15



gamesOfEveryTeam=[13,13,13,13,13,13,13,13,13,13,13,13,13,13,13,13,13,13,13,13];
weights=[|25,33,0,42|38,21,0,41|0,65,0,35|99,1,0,0|13,29,0,58|27,4,0,69|79,7,0,14|28,43,0,29|74,23,0,3|37,0,0,63|17,75,0,8|95,2,0,3|26,4,0,70|29,34,0,37|76,22,0,2|43,28,0,29|60,17,0,23|24,28,0,48|52,41,0,7|24,14,0,62|47,38,0,15|87,13,0,0|81,3,0,16|13,27,0,60|15,18,0,67|67,18,0,15|92,4,0,4|73,7,0,20|1,9,0,90|67,0,0,33|31,42,0,27|5,13,0,82|34,15,0,51|17,9,0,74|26,71,0,3|47,7,0,46|75,0,0,25|36,7,0,57|40,41,0,19|69,2,0,29|34,60,0,6|29,35,0,36|51,46,0,3|51,17,0,32|94,0,0,6|77,22,0,1|52,6,0,42|46,13,0,41|7,30,0,63|61,28,0,11|51,26,0,23|92,1,0,7|11,60,0,29|69,22,0,9|67,13,0,20|69,15,0,16|24,37,0,39|57,43,0,0|60,24,0,16|56,22,0,22|18,2,0,80|26,53,0,21|11,45,0,44|31,1,0,68|13,0,0,87|98,2,0,0|67,0,0,33|85,6,0,9|76,16,0,8|49,26,0,25|93,3,0,4|12,62,0,26|63,22,0,15|86,3,0,11|74,5,0,21|75,21,0,4|12,37,0,51|8,6,0,86|68,2,0,30|47,41,0,12|86,8,0,6|84,15,0,1|77,6,0,17|49,9,0,42|21,7,0,72|70,30,0,0|8,64,0,28|65,15,0,20|77,8,0,15|92,6,0,2|44,16,0,40|60,4,0,36|73,17,0,10|29,3,0,68|75,1,0,24|13,0,0,87|94,1,0,5|51,28,0,21|12,46,0,42|90,0,0,10|4,32,0,64|48,15,0,37|79,12,0,9|54,20,0,26|85,0,0,15|64,2,0,34|36,44,0,20|52,3,0,45|82,16,0,2|48,25,0,27|91,3,0,6|81,5,0,14|14,39,0,47|23,8,0,69|27,39,0,34|26,5,0,69|59,39,0,2|41,59,0,0|5,91,0,4|75,4,0,21|34,1,0,65|63,0,0,37|38,49,0,13|24,23,0,53|53,12,0,35|68,11,0,21|72,12,0,16|43,32,0,25|43,15,0,42|2,38,0,60|];